n = 21;
lu = [|-273, -13
      |-13, 265
      |-153, 209
      |49, 422
      |-220, 370
      |45, 386
      |-254, 83
      |76, 99
      |-200, 366
      |-438, -427
      |-62, 158
      |-371, -3
      |-293, 371
      |-204, 328
      |-203, 269
      |-398, 6
      |315, 348
      |-25, 189
      |-407, 11
      |-105, 112
      |68, 269|];
